This is Ipopt version 3.14.14, running with linear solver MUMPS 5.6.2.

Number of nonzeros in equality constraint Jacobian...:      160
Number of nonzeros in inequality constraint Jacobian.:       80
Number of nonzeros in Lagrangian Hessian.............:        0

Total number of variables............................:       80
                     variables with only lower bounds:       80
                variables with lower and upper bounds:        0
                     variables with only upper bounds:        0
Total number of equality constraints.................:       20
Total number of inequality constraints...............:       20
        inequality constraints with only lower bounds:        0
   inequality constraints with lower and upper bounds:        0
        inequality constraints with only upper bounds:       20

iter    objective    inf_pr   inf_du lg(mu)  ||d||  lg(rg) alpha_du alpha_pr  ls
   0  3.9999960e+00 1.00e+02 7.00e+00  -1.0 0.00e+00    -  0.00e+00 0.00e+00   0
   1  4.1623134e+00 1.00e+02 7.00e+00  -1.0 5.03e+01    -  4.96e-04 4.96e-04h  1
   2  2.0988917e+02 9.15e+01 9.43e+00  -1.0 1.00e+02    -  2.23e-04 8.43e-02h  1
   3  5.0421487e+02 7.92e+01 6.43e+00  -1.0 9.28e+01    -  3.08e-01 1.34e-01h  1
   4  1.9743373e+03 1.75e+01 7.49e+00  -1.0 7.93e+01    -  1.21e-02 7.79e-01h  1
   5  1.9924851e+03 1.67e+01 7.04e+00  -1.0 2.70e+01    -  6.14e-02 4.59e-02h  1
   6  2.0759046e+03 1.33e+01 7.24e+00  -1.0 2.78e+01    -  2.05e-02 2.03e-01h  1
   7  2.1551123e+03 1.03e+01 7.24e+00  -1.0 3.57e+01    -  4.91e-02 2.30e-01h  1
   8  2.1629523e+03 9.96e+00 2.80e+00  -1.0 3.03e+01    -  5.85e-01 2.97e-02h  1
   9  2.1640031e+03 9.91e+00 3.09e+00  -1.0 9.93e+01    -  2.10e-02 4.79e-03h  1
iter    objective    inf_pr   inf_du lg(mu)  ||d||  lg(rg) alpha_du alpha_pr  ls
  10  2.2568808e+03 6.01e+00 4.20e+00  -1.0 1.01e+02    -  1.71e-02 3.93e-01h  1
  11  2.3867583e+03 2.02e+00 3.97e+00  -1.0 5.10e+01    -  1.20e-01 6.64e-01h  1
  12  2.4369340e+03 7.93e-01 9.18e-01  -1.0 6.10e+00    -  7.83e-01 6.08e-01h  1
  13  2.4696395e+03 1.21e-09 3.09e-01  -1.0 4.05e+00    -  5.24e-01 1.00e+00h  1
  14  2.4696125e+03 3.22e-10 4.90e-03  -1.0 4.16e+00    -  9.87e-01 1.00e+00f  1
  15  2.4643106e+03 1.12e-10 2.00e-07  -1.7 3.21e-01    -  1.00e+00 1.00e+00f  1
  16  2.4630097e+03 1.03e-11 4.28e-06  -3.8 6.23e-02    -  1.00e+00 1.00e+00f  1
  17  2.4630001e+03 2.84e-14 1.85e-11  -5.7 1.05e-02    -  1.00e+00 1.00e+00f  1
  18  2.4630000e+03 1.42e-14 2.66e-14  -8.6 1.51e-03    -  1.00e+00 1.00e+00f  1

Number of Iterations....: 18

                                   (scaled)                 (unscaled)
Objective...............:   2.4629999790753836e+03    2.4629999790753836e+03
Dual infeasibility......:   2.6645352591003757e-14    2.6645352591003757e-14
Constraint violation....:   1.4210854715202004e-14    1.4210854715202004e-14
Variable bound violation:   9.8526023534162266e-09    9.8526023534162266e-09
Complementarity.........:   3.4143293206596104e-09    3.4143293206596104e-09
Overall NLP error.......:   3.4143293206596104e-09    3.4143293206596104e-09


Number of objective function evaluations             = 19
Number of objective gradient evaluations             = 19
Number of equality constraint evaluations            = 19
Number of inequality constraint evaluations          = 19
Number of equality constraint Jacobian evaluations   = 1
Number of inequality constraint Jacobian evaluations = 1
Number of Lagrangian Hessian evaluations             = 1
Total seconds in IPOPT                               = 0.021

EXIT: Optimal Solution Found.